20
25	236	24	73	27
4	481	489	72	46
15	183	580	89	6
19	322	410	29	75
43	24	87	73	96
49	196	354	82	62
25	516	415	33	20
29	54	377	80	98
48	213	612	29	52
27	279	264	53	47
45	508	362	22	57
19	132	1	58	92
14	138	530	24	47
13	56	396	26	85
2	495	182	51	29
22	386	174	17	100
23	404	504	67	56
43	194	592	66	81
37	90	292	40	76
30	524	380	34	92
